c read Graph
c width = 86
c time = 51 ms
c width = 12
c time = 92 ms
c width = 11
c time = 151 ms
c width = 10
c time = 167 ms
c width = 9
c time = 1537 ms
c width = 9
c time = 4909 ms
s td 89 10 99
b 1 1 2 12
b 2 2 3 12 13
b 3 9 10 21 22
b 4 3 12 13 23
b 5 9 21 22 33
b 6 67 78 79 90
b 7 77 87 88 98
b 8 67 79 90 91
b 9 77 87 97 98
b 10 3 4 5 15
b 11 3 5 14 15 24 34
b 12 5 14 15 24 26 34 36
b 13 5 15 24 26 34 36 46
b 14 5 15 26 34 36 46 56
b 15 34 45 46 56
b 16 24 34 35 36 46
b 17 14 24 25 26 36
b 18 3 14 23 24 34
b 19 3 13 14 23 24
b 20 5 15 16 26 36 46 56
b 21 5 16 17 26 27 36 46 56
b 22 5 17 26 27 36 37 46 56
b 23 5 17 27 28 36 37 38 46 56
b 24 5 17 28 29 36 37 38 39 46 56
b 25 5 17 29 36 37 38 39 46 47 56
b 26 5 17 29 37 38 39 46 47 48 56
b 27 5 17 29 38 39 46 47 48 49 56
b 28 5 17 29 39 46 47 48 49 56 57
b 29 5 17 29 39 47 48 49 56 57 58
b 30 5 17 29 39 48 49 56 57 58 59
b 31 5 17 29 39 49 56 57 58 59 67
b 32 5 17 29 39 49 57 58 59 67 68
b 33 5 17 29 39 49 58 59 67 68 69
b 34 5 17 29 39 49 59 67 68 69 79
b 35 5 17 29 39 49 59 67 69 79 91
b 36 5 17 29 39 49 59 69 79 80 91
b 37 5 17 29 39 49 59 69 70 80 91
b 38 5 17 29 39 49 59 60 70 80 91
b 39 5 17 29 39 49 50 60 70 80 91
b 40 5 17 29 39 40 50 60 70 80 91
b 41 5 17 29 40 50 60 70 80 81 91
b 42 5 17 29 40 50 60 70 71 81 91
b 43 5 17 29 40 50 60 61 71 81 91
b 44 5 17 29 40 50 51 61 71 81 91
b 45 5 17 29 40 51 61 71 81 91 92
b 46 5 17 29 40 51 61 71 81 82 92
b 47 5 17 29 40 51 61 71 72 82 92
b 48 5 17 29 40 51 61 62 72 82 92
b 49 5 17 29 40 51 52 62 72 82 92
b 50 5 17 29 40 52 62 72 82 92 93
b 51 5 17 29 40 52 62 72 82 83 93
b 52 5 17 29 40 52 62 72 73 83 93
b 53 5 17 29 40 52 62 63 73 83 93
b 54 5 17 29 40 52 63 73 83 93 94
b 55 5 17 29 40 52 63 73 83 84 94
b 56 5 17 29 40 52 63 73 74 84 94
b 57 5 17 29 40 52 63 64 74 84 94
b 58 5 17 29 40 52 64 74 84 94 95
b 59 5 17 29 40 52 64 74 84 85 95
b 60 5 17 29 40 52 64 74 85 95 96
b 61 5 17 29 40 52 64 74 85 86 96
b 62 5 17 29 40 52 64 74 76 86 96
b 63 5 17 29 40 52 64 76 86 96 97
b 64 5 17 29 40 52 64 66 76 86 97
b 65 5 17 29 40 52 54 64 66 76 97
b 66 5 17 29 40 52 53 54 64 66 97
b 67 5 17 29 40 42 52 53 54 66 97
b 68 5 17 29 40 42 44 52 54 66 97
b 69 44 52 54 55 66 97
b 70 5 17 29 30 40 42 44 52 54
b 71 5 9 17 20 29 30 42 44 54
b 72 5 9 17 19 20 29 30
b 73 5 7 9 17 19 29
b 74 5 6 7 17
b 75 7 17 18 19 29
b 76 7 8 9 19
b 77 9 20 30 32 42 44 54
b 78 20 30 31 32 42
b 79 32 42 43 44 54
b 80 9 20 32 33 44
b 81 9 20 21 32 33
b 82 30 40 41 42 52
b 83 66 76 77 86 97
b 84 76 77 86 87 97
b 85 54 64 65 66 76
b 86 64 74 75 76 86
b 87 88 98 99
b 88 78 89 90
b 89 10 11 22
1 2
2 4
3 89
3 5
4 19
5 81
6 88
6 8
7 87
7 9
8 35
9 84
10 11
11 18
11 12
12 17
12 13
13 16
13 14
14 20
14 15
18 19
20 21
21 22
22 23
23 24
24 25
25 26
26 27
27 28
28 29
29 30
30 31
31 32
32 33
33 34
34 35
35 36
36 37
37 38
38 39
39 40
40 41
41 42
42 43
43 44
44 45
45 46
46 47
47 48
48 49
49 50
50 51
51 52
52 53
53 54
54 55
55 56
56 57
57 58
58 59
59 60
60 61
61 62
62 86
62 63
63 64
64 83
64 65
65 85
65 66
66 67
67 68
68 70
68 69
70 71
70 82
71 77
71 72
72 73
73 75
73 76
73 74
77 79
77 80
77 78
80 81
83 84
